CMPL model generation - running

CMPL version: 1.11.0
Authors: Thomas Schleiff, Mike Steglich
Distributed under the GPLv3 

create model instance ...
write model instance ...
CMPL model generation - finished

Solver - running


Welcome to IBM(R) ILOG(R) CPLEX(R) Interactive Optimizer 12.7.1.0
  with Simplex, Mixed Integer & Barrier Optimizers
5725-A06 5725-A29 5724-Y48 5724-Y49 5724-Y54 5724-Y55 5655-Y21
Copyright IBM Corp. 1988, 2017.  All Rights Reserved.

Type 'help' for a list of available commands.
Type 'help' followed by a command name for more
information on commands.

CPLEX> Specified objective sense: MINIMIZE
Selected objective  name:  line[1]
Selected RHS        name:  RHS
Selected bound      name:  BOUND
Problem '/tmp/cmpl.T24460.mps' read.
Read time = 0.09 sec. (8.18 ticks)
CPLEX> CPXPARAM_Read_APIEncoding                        "UTF-8"
Tried aggregator 3 times.
MIP Presolve eliminated 19119 rows and 30473 columns.
MIP Presolve modified 340 coefficients.
Aggregator did 707 substitutions.
Reduced MIP has 2529 rows, 3413 columns, and 9945 nonzeros.
Reduced MIP has 3245 binaries, 0 generals, 0 SOSs, and 0 indicators.
Presolve time = 0.09 sec. (40.71 ticks)
Found incumbent of value 1348.855524 after 0.17 sec. (66.15 ticks)
Probing fixed 16 vars, tightened 0 bounds.
Probing time = 0.02 sec. (4.48 ticks)
Tried aggregator 1 time.
MIP Presolve eliminated 0 rows and 16 columns.
MIP Presolve modified 95 coefficients.
Reduced MIP has 2529 rows, 3397 columns, and 9913 nonzeros.
Reduced MIP has 3397 binaries, 0 generals, 0 SOSs, and 0 indicators.
Presolve time = 0.02 sec. (8.48 ticks)
Probing time = 0.05 sec. (2.71 ticks)
Clique table members: 6094.
MIP emphasis: balance optimality and feasibility.
MIP search method: dynamic search.
Parallel mode: none, using 1 thread.
Root relaxation solution time = 0.02 sec. (6.37 ticks)

        Nodes                                         Cuts/
   Node  Left     Objective  IInf  Best Integer    Best Bound    ItCnt     Gap

*     0+    0                         1348.8555      -18.0624           101.34%
      0     0      358.2777     2     1348.8555      358.2777      297   73.44%
*     0+    0                          360.2222      358.2777             0.54%
*     0+    0                          358.3348      358.2777             0.02%
*     0     0      integral     0      358.3063      358.3063      298    0.00%
Elapsed time = 0.35 sec. (106.57 ticks, tree = 0.01 MB, solutions = 4)

Root node processing (before b&c):
  Real time             =    0.36 sec. (108.28 ticks)
Sequential b&c:
  Real time             =    0.00 sec. (0.00 ticks)
                          ------------
Total (root+branch&cut) =    0.36 sec. (108.28 ticks)

Solution pool: 4 solutions saved.

MIP - Integer optimal solution:  Objective =  3.5830627500e+02
Solution time =    0.36 sec.  Iterations = 298  Nodes = 0
Deterministic time = 108.38 ticks  (304.56 ticks/sec)

CPLEX> Incumbent solution written to file '/tmp/cmpl.T24460.gsol'.
CPLEX> 
CMPL: Time used for model generation: 0 seconds
CMPL: Time used for solving the model: 2 seconds


Solution written to ASCII file: results/output_generated_conf_0.7/2016-01-04-4/fair-nonlinear.sol

Solver - finished
